NAME: instance_2063
TYPE: TSP
DIMENSION: 20
EDGE_WEIGHT_TYPE: EUC_2D
NODE_COORD_SECTION
0 50.44 11.88
1 73.60 77.29
2 34.15 97.88
3 26.26 50.84
4 66.04 16.16
5 94.64 35.69
6 98.80 38.02
7 94.32 68.11
8 70.48 65.76
9 82.41 37.74
10 79.45 84.80
11 11.23 74.15
12 76.12 60.22
13 0.10 18.59
14 15.80 19.16
15 30.51 52.10
16 50.78 13.53
17 19.33 50.58
18 52.89 50.26
19 51.73 52.63
EOF
